NAME : Unnamed.764.tour
COMMENT : Length = 764
COMMENT : Found by LKH [Keld Helsgaun] Sat Oct 04 21:49:49 2014
TYPE : TOUR
DIMENSION : 41
TOUR_SECTION
1
16
20
26
14
23
37
38
34
28
27
22
36
30
5
10
8
11
6
7
9
13
2
4
12
41
3
18
25
31
24
21
33
32
40
39
15
29
17
19
35
-1
EOF
